%NProcShared=20
%chk=tada_N2_amido.chk
%mem=5GB
#p B3LYP/Gen scf(conver=8,tight) gfinput Int(Grid=Ultrafine) opt(maxcycle=150) freq(SaveNM,HPmodes,Raman) Pseudo=Read Symmetry=None pop=(full,NBO) EmpiricalDispersion=GD3 scrf=(solvent=TetraHydroFuran)

***

0 1
Ti      33.047785000      8.128471000     12.535057000
Ti      36.181282000     10.438536000      9.832109000
K       32.755019000     10.742258000      8.978705000
Si      31.043790000      6.010777000     11.127612000
Si      31.844067000      9.548928000     15.317275000
Si      36.402794000     10.449746000      6.452362000
K       34.875697000     11.419989000     13.304953000
Si      39.248779000     10.801069000     11.349717000
N       33.906772000      9.252398000     11.495905000
N       34.769442000      9.874574000     10.778555000
N       32.576798000      6.277215000     11.895288000
N       35.694383000      9.849438000      7.927627000
N       36.621513000      7.688315000      9.738711000
N       34.933068000      7.062377000     13.072411000
N       33.109145000      8.686462000     14.494159000
N       38.163888000     10.078034000     10.204466000
N       36.110794000     12.362416000      9.947193000
C       36.085479000      7.284937000     12.148086000
H       36.957457000      6.759382000     12.565823000
H       36.295831000      8.354999000     12.153020000
C       30.167632000      7.700225000     11.225174000
C       33.556131000      5.213335000     12.085420000
H       34.101395000      4.984616000     11.158988000
H       33.089796000      4.264997000     12.401637000
C       35.843973000      6.880563000     10.685334000
H       36.057310000      5.805576000     10.541651000
H       34.791555000      7.047384000     10.452721000
C       31.164266000      5.478420000      9.277116000
C       38.074489000      7.610256000      9.909850000
H       38.508072000      6.750276000      9.363171000
H       38.303326000      7.471456000     10.969228000
C       36.182533000      7.431645000      8.357361000
H       35.760391000      6.414328000      8.263931000
H       37.050841000      7.476433000      7.696183000
C       35.159520000      8.479883000      7.889886000
H       34.815574000      8.178221000      6.886436000
C       35.304206000      7.597395000     14.420390000
H       35.991794000      6.901060000     14.925392000
H       35.841925000      8.534282000     14.255503000
C       30.867162000     10.496806000     13.994565000
H       30.146655000     11.176596000     14.466216000
H       30.300257000      9.832822000     13.330689000
H       31.531102000     11.104620000     13.366968000
C       34.060094000      7.882061000     15.263971000
H       33.621332000      6.926135000     15.599773000
H       34.402159000      8.388450000     16.182598000
C       30.015347000      4.720117000     12.063564000
H       30.517409000      3.744240000     12.078446000
H       29.024027000      4.576644000     11.615256000
H       29.874997000      5.037859000     13.104207000
C       32.011439000      6.507508000      8.504026000
C       29.762056000      5.395188000      8.637082000
H       29.119903000      4.664388000      9.144759000
H       29.842324000      5.082636000      7.583757000
H       29.243478000      6.362389000      8.647796000
C       34.542942000      5.621905000     13.185124000
H       34.040689000      5.503109000     14.148314000
H       35.443812000      4.989247000     13.193128000
C       31.836368000      4.092121000      9.162248000
H       32.863215000      4.098674000      9.545228000
H       31.884582000      3.778269000      8.107336000
H       31.279432000      3.318596000      9.706743000
C       38.713946000      8.930806000      9.463781000
H       39.804035000      8.827944000      9.577485000
H       38.545840000      9.059306000      8.385215000
C       35.098272000     11.104655000      5.171188000
C       38.272152000     11.741381000     12.669485000
C       30.643443000      8.363984000     16.262492000
C       37.390694000      9.094293000      5.537419000
H       38.251635000      8.770245000      6.134658000
H       37.779504000      9.473611000      4.583894000
H       36.785554000      8.205582000      5.317129000
C       37.619697000     11.845910000      6.837455000
H       38.217949000     12.097485000      5.952431000
H       38.303528000     11.524745000      7.631542000
C       40.516551000     12.021588000     10.540451000
C       30.326354000      7.143365000     15.376055000
H       29.833062000      7.435201000     14.439830000
H       29.647841000      6.449323000     15.897038000
H       31.233390000      6.589821000     15.106880000
C       32.525477000     10.803201000     16.575180000
H       33.321615000     10.367829000     17.192641000
H       31.736276000     11.148342000     17.256431000
H       32.935112000     11.690717000     16.076029000
C       34.327338000     12.303022000      5.752468000
H       33.808461000     12.040974000      6.680296000
H       33.567111000     12.660681000      5.039345000
C       31.286784000      7.873178000     17.578592000
H       32.219462000      7.322755000     17.405298000
H       30.600695000      7.192924000     18.108200000
H       31.511391000      8.704337000     18.258827000
C       40.267823000      9.470967000     12.267864000
H       39.602801000      8.693056000     12.666246000
H       41.013856000      8.978283000     11.631700000
C       29.326683000      9.094373000     16.603723000
H       29.497568000      9.986680000     17.220794000
H       28.655230000      8.430319000     17.171027000
H       28.788535000      9.410458000     15.701398000
C       34.087105000      9.998054000      4.806240000
H       34.578265000      9.115890000      4.375487000
H       33.363114000     10.366415000      4.061074000
H       33.515025000      9.664858000      5.680598000
C       35.803039000     11.571677000      3.877843000
H       36.542541000     12.358600000      4.074163000
H       35.066541000     11.984910000      3.169766000
H       36.316154000     10.748725000      3.365936000
C       41.221374000     11.343559000      9.347326000
H       41.782703000     10.450689000      9.654120000
H       41.940036000     12.036356000      8.879674000
H       40.504899000     11.040185000      8.575038000
H       29.283518000      7.711238000     10.577268000
H       31.537217000      7.498102000      8.497933000
H       32.137392000      6.201017000      7.453552000
H       33.008644000      6.620399000      8.941295000
H       29.825501000      7.904833000     12.246250000
H       37.441015000     12.269534000     12.190935000
H       37.876600000     11.034960000     13.412980000
H       38.893039000     12.471851000     13.206944000
H       34.283054000      8.396688000      8.548750000
H       33.566904000     12.431455000     10.835091000
H       30.807097000      8.533981000     10.900189000
C       35.310494000     13.579015000     10.249926000
H       37.116366000     12.755442000      7.179567000
C       39.789850000     13.282218000     10.030860000
C       41.586425000     12.450481000     11.567737000
H       34.986760000     13.147222000      5.983929000
H       40.803623000      9.916818000     13.116297000
C       34.843102000     14.178042000      8.889009000
C       34.133023000     13.306524000     11.204978000
C       36.245750000     14.639710000     10.884739000
H       39.054596000     13.038710000      9.256486000
H       39.263001000     13.807909000     10.835924000
H       40.509436000     13.989557000      9.586589000
H       42.176325000     11.597869000     11.926905000
H       41.144197000     12.944272000     12.443188000
H       42.289953000     13.166441000     11.112421000
H       35.683313000     14.364659000      8.198869000
H       34.154347000     13.489249000      8.392524000
H       34.314675000     15.129187000      9.045362000
H       33.440974000     14.167442000     11.126406000
H       37.067328000     14.919051000     10.206616000
H       35.680035000     15.551053000     11.122296000
H       36.681484000     14.262167000     11.814863000
H       36.978210000     12.679778000      9.499828000

Si 0
6-31G*
****
C N H 0
6-31+G*
****
Ti K 0
LANL2DZ
****

Ti K 0
LANL2DZ

