%NProcShared=20
%chk=tada_N2.chk
%mem=5GB
#p B3LYP/Gen scf(conver=8,tight) gfinput Int(Grid=Ultrafine) opt(CalcFC,maxcycle=150) freq(SaveNM,HPmodes,Raman) Pseudo=Read Symmetry=None pop=(full,NBO) EmpiricalDispersion=GD3 scrf=(solvent=TetraHydroFuran)

***

0 1
Ti      12.871215000     10.514249000     24.616418000
Ti      16.975081000      7.936074000     24.271601000
Si      12.442520000     12.518638000     27.238803000
Si       9.983995000      9.122146000     23.567865000
Si      19.627544000      8.030156000     26.396130000
Si      17.860509000      7.536122000     20.961610000
N       14.195051000      9.355765000     24.730038000
N       15.343516000      8.717424000     24.569725000
N       18.074832000      8.676870000     25.825913000
N       12.899697000     12.271566000     25.544554000
N       13.784912000     11.622119000     22.978840000
N       17.415235000     10.931089000     23.898712000
N       11.495424000      9.981742000     23.231083000
N       16.798413000      6.168836000     24.448231000
N       17.958697000      8.352989000     22.525632000
C       15.255899000     11.350146000     22.734735000
H       15.548282000     11.870631000     21.812160000
H       15.362873000     10.272041000     22.611753000
C       18.202143000     11.115233000     25.131602000
H       19.258848000     10.964616000     24.903832000
H       18.083855000     12.145380000     25.522730000
C       16.177382000     11.730248000     23.905661000
H       15.651388000     11.484144000     24.829046000
C       13.021665000     11.193727000     21.731478000
H       13.481598000     10.263571000     21.388232000
H       13.134687000     11.956300000     20.947802000
C       17.785541000     10.094098000     26.212528000
H       18.281144000     10.390332000     27.151969000
C       18.201236000     10.872869000     22.658405000
H       17.526365000     10.949126000     21.803920000
H       18.945395000     11.693869000     22.588235000
C       16.327774000      4.817292000     24.721323000
C       11.548334000     10.921559000     22.072782000
H       11.044979000     11.879079000     22.288009000
H       11.068690000     10.509202000     21.170089000
C       18.913815000      9.507652000     22.562243000
H       19.558631000      9.547494000     21.670158000
H       19.580955000      9.404083000     23.427899000
C        8.493185000     10.328619000     23.878533000
H       13.263873000     11.821794000     30.113467000
C       19.636484000      7.510286000     28.285758000
C       10.277252000      8.092766000     25.161953000
H       10.506070000      8.742993000     26.015916000
H        9.386809000      7.503557000     25.410711000
H       11.120977000      7.403074000     25.033995000
C       20.148499000      6.502285000     25.371001000
H       19.254330000      5.917670000     25.128212000
C        8.956721000     11.481648000     24.800327000
H        9.773677000     12.050192000     24.342008000
H        8.119157000     12.166782000     24.999793000
H        9.319343000     11.099459000     25.762584000
C        9.491322000      7.912180000     22.158509000
H       10.152117000      7.035249000     22.158851000
H        8.459997000      7.561268000     22.292878000
H        9.560999000      8.397234000     21.177009000
C       19.418293000      6.454716000     20.499182000
C       18.780966000      6.241897000     28.501984000
H       19.165436000      5.401677000     27.913096000
H       18.792550000      5.952697000     29.564945000
H       17.738827000      6.402154000     28.205033000
C       17.642796000      8.818602000     19.534139000
H       18.510990000      9.483476000     19.446681000
H       17.496371000      8.314457000     18.570731000
H       16.760161000      9.438650000     19.739887000
C       19.561115000      5.292278000     21.508049000
H       18.674310000      4.649987000     21.503546000
H       20.436119000      4.674647000     21.249559000
H       19.695504000      5.675862000     22.524514000
C        7.325901000      9.569618000     24.556972000
H        7.622816000      9.183568000     25.539176000
H        6.473623000     10.249784000     24.701164000
H        6.985234000      8.727414000     23.940844000
C       19.080843000      8.644168000     29.180153000
H       18.036075000      8.867782000     28.931665000
H       19.122001000      8.345447000     30.239355000
C       17.083981000      3.782003000     23.837577000
H       16.897920000      3.999949000     22.781618000
H       18.159192000      3.873287000     24.020686000
H       16.761250000      2.754802000     24.056113000
C        7.985851000     10.924117000     22.540073000
H        7.647560000     10.134762000     21.857801000
H        7.136343000     11.596413000     22.731303000
H        8.768377000     11.504283000     22.037771000
C       16.572886000      4.432859000     26.206868000
H       16.261859000      3.399709000     26.413757000
H       17.634866000      4.546410000     26.436569000
H       16.006769000      5.106177000     26.861998000
C       19.259705000      5.869973000     19.073910000
H       19.198351000      6.664882000     18.321026000
H       20.128259000      5.238625000     18.831441000
H       18.359797000      5.247358000     18.995593000
C       20.715097000      7.299656000     20.545730000
H       20.899327000      7.671340000     21.560332000
H       21.575136000      6.680251000     20.248004000
H       20.661467000      8.157465000     19.863179000
K       15.354703000      8.026618000     27.217948000
K       13.573604000      7.459432000     22.755334000
C       11.104068000     13.877146000     27.438418000
C       13.958204000     12.964220000     28.369009000
C       21.036792000      9.338941000     26.218103000
C       13.575996000     13.368761000     24.797345000
C       13.482975000     13.082519000     23.284448000
H       16.389843000     12.816609000     23.898829000
C       21.085218000      7.195551000     28.738210000
H       20.880339000      5.883940000     25.905606000
H       20.589121000      6.835225000     24.422040000
H       19.663293000      9.566549000     29.062833000
H       10.164478000     13.541087000     26.982974000
H       10.921509000     14.092958000     28.498454000
H       11.411293000     14.808104000     26.946611000
C       14.436534000     14.412781000     28.095138000
C       13.570157000     12.844783000     29.863238000
H       21.128461000      9.630781000     25.164807000
H       20.836402000     10.241556000     26.808952000
H       21.997092000      8.919470000     26.541065000
H       13.097137000     14.346434000     24.972171000
H       14.628806000     13.472586000     25.088317000
H       12.449691000     13.257435000     22.973916000
H       14.150148000     13.728589000     22.697592000
H       21.532267000      6.406607000     28.120716000
H       21.722648000      8.084644000     28.679515000
H       21.082747000      6.847654000     29.782786000
H       14.771253000     14.533389000     27.059068000
H       13.636050000     15.137303000     28.288202000
H       15.282974000     14.655416000     28.754607000
H       14.432417000     13.107108000     30.494254000
H       12.746982000     13.524888000     30.116438000
C       15.113235000     11.984661000     28.058471000
H       16.005662000     12.239765000     28.648802000
H       14.822069000     10.956410000     28.310845000
H       15.375135000     12.009250000     26.996168000
C       11.714010000     10.847814000     27.845365000
H       10.889100000     10.526435000     27.198100000
H       12.476346000     10.057567000     27.844591000
H       11.322313000     10.944461000     28.864958000
C       14.803573000      4.653611000     24.435503000
H       14.617341000      4.852649000     23.373132000
H       14.455839000      3.637103000     24.663168000
H       14.234571000      5.366628000     25.045934000
C       16.323586000      6.389099000     20.915349000
H       16.477654000      5.520450000     20.264600000
H       16.145079000      6.043977000     21.940859000
H       15.454070000      6.947010000     20.538110000
H       16.705894000     10.219706000     26.358734000

Si 0
6-31G
****
C N H 0
6-31+G*
****
Ti K 0
LANL2DZ
****

Ti K 0
LANL2DZ

